2
46
60
25 10
8 6 2 48
11 4 2 44
10 3 3 30
4 7 2 28
12 6 1 72
11 6 1 66
12 8 1 96
3 6 1 18
4 3 1 12
3 8 2 24
9 1 2 9
1 3 1 3
11 3 1 33
11 1 1 11
9 8 1 72
11 5 2 55
1 7 1 7
7 8 1 56
2 8 1 16
8 3 2 24
7 3 1 21
8 4 2 32
2 7 1 14
12 7 3 84
1 2 1 2
1 1 1 1
3 4 1 12
5 6 1 30
8 8 2 64
4 1 1 4
12 3 1 36
10 7 1 70
5 4 2 20
3 2 1 6
7 7 1 49
11 8 1 88
10 5 1 50
2 3 1 6
3 3 1 9
8 1 1 8
8 7 1 56
6 5 1 30
8 5 1 40
4 8 1 32
7 2 1 14
6 2 1 12

